c 3-Coloring of graph with 40 vertices, 212 edges
c Variable x[v][c] = vertex v has color c  (v=0..39, c=0..2)
c Variable number: v*3 + c + 1
c SAT Competition 2026 — Experimental Track — LLM-Guided SAT Solver
c Difficulty: hard
p cnf 120 796
1 2 3 0
4 5 6 0
7 8 9 0
10 11 12 0
13 14 15 0
16 17 18 0
19 20 21 0
22 23 24 0
25 26 27 0
28 29 30 0
31 32 33 0
34 35 36 0
37 38 39 0
40 41 42 0
43 44 45 0
46 47 48 0
49 50 51 0
52 53 54 0
55 56 57 0
58 59 60 0
61 62 63 0
64 65 66 0
67 68 69 0
70 71 72 0
73 74 75 0
76 77 78 0
79 80 81 0
82 83 84 0
85 86 87 0
88 89 90 0
91 92 93 0
94 95 96 0
97 98 99 0
100 101 102 0
103 104 105 0
106 107 108 0
109 110 111 0
112 113 114 0
115 116 117 0
118 119 120 0
-1 -2 0
-1 -3 0
-2 -3 0
-4 -5 0
-4 -6 0
-5 -6 0
-7 -8 0
-7 -9 0
-8 -9 0
-10 -11 0
-10 -12 0
-11 -12 0
-13 -14 0
-13 -15 0
-14 -15 0
-16 -17 0
-16 -18 0
-17 -18 0
-19 -20 0
-19 -21 0
-20 -21 0
-22 -23 0
-22 -24 0
-23 -24 0
-25 -26 0
-25 -27 0
-26 -27 0
-28 -29 0
-28 -30 0
-29 -30 0
-31 -32 0
-31 -33 0
-32 -33 0
-34 -35 0
-34 -36 0
-35 -36 0
-37 -38 0
-37 -39 0
-38 -39 0
-40 -41 0
-40 -42 0
-41 -42 0
-43 -44 0
-43 -45 0
-44 -45 0
-46 -47 0
-46 -48 0
-47 -48 0
-49 -50 0
-49 -51 0
-50 -51 0
-52 -53 0
-52 -54 0
-53 -54 0
-55 -56 0
-55 -57 0
-56 -57 0
-58 -59 0
-58 -60 0
-59 -60 0
-61 -62 0
-61 -63 0
-62 -63 0
-64 -65 0
-64 -66 0
-65 -66 0
-67 -68 0
-67 -69 0
-68 -69 0
-70 -71 0
-70 -72 0
-71 -72 0
-73 -74 0
-73 -75 0
-74 -75 0
-76 -77 0
-76 -78 0
-77 -78 0
-79 -80 0
-79 -81 0
-80 -81 0
-82 -83 0
-82 -84 0
-83 -84 0
-85 -86 0
-85 -87 0
-86 -87 0
-88 -89 0
-88 -90 0
-89 -90 0
-91 -92 0
-91 -93 0
-92 -93 0
-94 -95 0
-94 -96 0
-95 -96 0
-97 -98 0
-97 -99 0
-98 -99 0
-100 -101 0
-100 -102 0
-101 -102 0
-103 -104 0
-103 -105 0
-104 -105 0
-106 -107 0
-106 -108 0
-107 -108 0
-109 -110 0
-109 -111 0
-110 -111 0
-112 -113 0
-112 -114 0
-113 -114 0
-115 -116 0
-115 -117 0
-116 -117 0
-118 -119 0
-118 -120 0
-119 -120 0
-1 -4 0
-2 -5 0
-3 -6 0
-1 -19 0
-2 -20 0
-3 -21 0
-1 -28 0
-2 -29 0
-3 -30 0
-1 -34 0
-2 -35 0
-3 -36 0
-1 -43 0
-2 -44 0
-3 -45 0
-1 -46 0
-2 -47 0
-3 -48 0
-1 -73 0
-2 -74 0
-3 -75 0
-1 -82 0
-2 -83 0
-3 -84 0
-1 -94 0
-2 -95 0
-3 -96 0
-1 -103 0
-2 -104 0
-3 -105 0
-4 -25 0
-5 -26 0
-6 -27 0
-4 -43 0
-5 -44 0
-6 -45 0
-4 -79 0
-5 -80 0
-6 -81 0
-4 -82 0
-5 -83 0
-6 -84 0
-4 -91 0
-5 -92 0
-6 -93 0
-4 -115 0
-5 -116 0
-6 -117 0
-4 -118 0
-5 -119 0
-6 -120 0
-7 -16 0
-8 -17 0
-9 -18 0
-7 -19 0
-8 -20 0
-9 -21 0
-7 -31 0
-8 -32 0
-9 -33 0
-7 -40 0
-8 -41 0
-9 -42 0
-7 -55 0
-8 -56 0
-9 -57 0
-7 -58 0
-8 -59 0
-9 -60 0
-7 -64 0
-8 -65 0
-9 -66 0
-7 -73 0
-8 -74 0
-9 -75 0
-7 -85 0
-8 -86 0
-9 -87 0
-7 -88 0
-8 -89 0
-9 -90 0
-7 -94 0
-8 -95 0
-9 -96 0
-7 -103 0
-8 -104 0
-9 -105 0
-7 -112 0
-8 -113 0
-9 -114 0
-7 -115 0
-8 -116 0
-9 -117 0
-7 -118 0
-8 -119 0
-9 -120 0
-10 -13 0
-11 -14 0
-12 -15 0
-10 -16 0
-11 -17 0
-12 -18 0
-10 -28 0
-11 -29 0
-12 -30 0
-10 -31 0
-11 -32 0
-12 -33 0
-10 -40 0
-11 -41 0
-12 -42 0
-10 -49 0
-11 -50 0
-12 -51 0
-10 -52 0
-11 -53 0
-12 -54 0
-10 -55 0
-11 -56 0
-12 -57 0
-10 -61 0
-11 -62 0
-12 -63 0
-10 -64 0
-11 -65 0
-12 -66 0
-10 -67 0
-11 -68 0
-12 -69 0
-10 -82 0
-11 -83 0
-12 -84 0
-10 -91 0
-11 -92 0
-12 -93 0
-10 -94 0
-11 -95 0
-12 -96 0
-10 -103 0
-11 -104 0
-12 -105 0
-10 -109 0
-11 -110 0
-12 -111 0
-10 -115 0
-11 -116 0
-12 -117 0
-13 -22 0
-14 -23 0
-15 -24 0
-13 -28 0
-14 -29 0
-15 -30 0
-13 -31 0
-14 -32 0
-15 -33 0
-13 -37 0
-14 -38 0
-15 -39 0
-13 -40 0
-14 -41 0
-15 -42 0
-13 -43 0
-14 -44 0
-15 -45 0
-13 -46 0
-14 -47 0
-15 -48 0
-13 -58 0
-14 -59 0
-15 -60 0
-13 -61 0
-14 -62 0
-15 -63 0
-13 -67 0
-14 -68 0
-15 -69 0
-13 -91 0
-14 -92 0
-15 -93 0
-13 -100 0
-14 -101 0
-15 -102 0
-13 -103 0
-14 -104 0
-15 -105 0
-13 -106 0
-14 -107 0
-15 -108 0
-16 -34 0
-17 -35 0
-18 -36 0
-16 -46 0
-17 -47 0
-18 -48 0
-16 -49 0
-17 -50 0
-18 -51 0
-16 -64 0
-17 -65 0
-18 -66 0
-16 -103 0
-17 -104 0
-18 -105 0
-16 -106 0
-17 -107 0
-18 -108 0
-16 -118 0
-17 -119 0
-18 -120 0
-19 -31 0
-20 -32 0
-21 -33 0
-19 -37 0
-20 -38 0
-21 -39 0
-19 -43 0
-20 -44 0
-21 -45 0
-19 -46 0
-20 -47 0
-21 -48 0
-19 -52 0
-20 -53 0
-21 -54 0
-19 -55 0
-20 -56 0
-21 -57 0
-19 -58 0
-20 -59 0
-21 -60 0
-19 -67 0
-20 -68 0
-21 -69 0
-19 -73 0
-20 -74 0
-21 -75 0
-19 -85 0
-20 -86 0
-21 -87 0
-19 -88 0
-20 -89 0
-21 -90 0
-19 -91 0
-20 -92 0
-21 -93 0
-19 -100 0
-20 -101 0
-21 -102 0
-22 -43 0
-23 -44 0
-24 -45 0
-22 -49 0
-23 -50 0
-24 -51 0
-22 -61 0
-23 -62 0
-24 -63 0
-22 -64 0
-23 -65 0
-24 -66 0
-22 -70 0
-23 -71 0
-24 -72 0
-22 -85 0
-23 -86 0
-24 -87 0
-25 -28 0
-26 -29 0
-27 -30 0
-25 -40 0
-26 -41 0
-27 -42 0
-25 -73 0
-26 -74 0
-27 -75 0
-25 -85 0
-26 -86 0
-27 -87 0
-25 -109 0
-26 -110 0
-27 -111 0
-25 -112 0
-26 -113 0
-27 -114 0
-28 -34 0
-29 -35 0
-30 -36 0
-28 -37 0
-29 -38 0
-30 -39 0
-28 -58 0
-29 -59 0
-30 -60 0
-28 -64 0
-29 -65 0
-30 -66 0
-28 -67 0
-29 -68 0
-30 -69 0
-28 -109 0
-29 -110 0
-30 -111 0
-28 -118 0
-29 -119 0
-30 -120 0
-31 -34 0
-32 -35 0
-33 -36 0
-31 -49 0
-32 -50 0
-33 -51 0
-31 -58 0
-32 -59 0
-33 -60 0
-31 -64 0
-32 -65 0
-33 -66 0
-31 -97 0
-32 -98 0
-33 -99 0
-31 -100 0
-32 -101 0
-33 -102 0
-31 -103 0
-32 -104 0
-33 -105 0
-34 -43 0
-35 -44 0
-36 -45 0
-34 -46 0
-35 -47 0
-36 -48 0
-34 -58 0
-35 -59 0
-36 -60 0
-34 -67 0
-35 -68 0
-36 -69 0
-34 -76 0
-35 -77 0
-36 -78 0
-34 -97 0
-35 -98 0
-36 -99 0
-34 -103 0
-35 -104 0
-36 -105 0
-34 -106 0
-35 -107 0
-36 -108 0
-34 -109 0
-35 -110 0
-36 -111 0
-34 -112 0
-35 -113 0
-36 -114 0
-37 -61 0
-38 -62 0
-39 -63 0
-37 -64 0
-38 -65 0
-39 -66 0
-37 -67 0
-38 -68 0
-39 -69 0
-37 -94 0
-38 -95 0
-39 -96 0
-37 -97 0
-38 -98 0
-39 -99 0
-37 -118 0
-38 -119 0
-39 -120 0
-40 -55 0
-41 -56 0
-42 -57 0
-40 -58 0
-41 -59 0
-42 -60 0
-40 -61 0
-41 -62 0
-42 -63 0
-40 -94 0
-41 -95 0
-42 -96 0
-43 -49 0
-44 -50 0
-45 -51 0
-43 -73 0
-44 -74 0
-45 -75 0
-43 -82 0
-44 -83 0
-45 -84 0
-43 -88 0
-44 -89 0
-45 -90 0
-43 -109 0
-44 -110 0
-45 -111 0
-43 -115 0
-44 -116 0
-45 -117 0
-43 -118 0
-44 -119 0
-45 -120 0
-46 -55 0
-47 -56 0
-48 -57 0
-46 -61 0
-47 -62 0
-48 -63 0
-46 -70 0
-47 -71 0
-48 -72 0
-46 -76 0
-47 -77 0
-48 -78 0
-46 -91 0
-47 -92 0
-48 -93 0
-46 -103 0
-47 -104 0
-48 -105 0
-46 -115 0
-47 -116 0
-48 -117 0
-49 -52 0
-50 -53 0
-51 -54 0
-49 -76 0
-50 -77 0
-51 -78 0
-49 -82 0
-50 -83 0
-51 -84 0
-49 -91 0
-50 -92 0
-51 -93 0
-49 -97 0
-50 -98 0
-51 -99 0
-49 -103 0
-50 -104 0
-51 -105 0
-49 -112 0
-50 -113 0
-51 -114 0
-49 -115 0
-50 -116 0
-51 -117 0
-52 -73 0
-53 -74 0
-54 -75 0
-52 -109 0
-53 -110 0
-54 -111 0
-52 -112 0
-53 -113 0
-54 -114 0
-52 -118 0
-53 -119 0
-54 -120 0
-55 -58 0
-56 -59 0
-57 -60 0
-55 -61 0
-56 -62 0
-57 -63 0
-55 -82 0
-56 -83 0
-57 -84 0
-55 -85 0
-56 -86 0
-57 -87 0
-55 -94 0
-56 -95 0
-57 -96 0
-55 -118 0
-56 -119 0
-57 -120 0
-58 -64 0
-59 -65 0
-60 -66 0
-58 -70 0
-59 -71 0
-60 -72 0
-58 -73 0
-59 -74 0
-60 -75 0
-58 -76 0
-59 -77 0
-60 -78 0
-58 -97 0
-59 -98 0
-60 -99 0
-61 -64 0
-62 -65 0
-63 -66 0
-61 -106 0
-62 -107 0
-63 -108 0
-64 -79 0
-65 -80 0
-66 -81 0
-64 -94 0
-65 -95 0
-66 -96 0
-64 -118 0
-65 -119 0
-66 -120 0
-67 -85 0
-68 -86 0
-69 -87 0
-67 -94 0
-68 -95 0
-69 -96 0
-67 -97 0
-68 -98 0
-69 -99 0
-70 -82 0
-71 -83 0
-72 -84 0
-70 -85 0
-71 -86 0
-72 -87 0
-70 -91 0
-71 -92 0
-72 -93 0
-70 -100 0
-71 -101 0
-72 -102 0
-70 -103 0
-71 -104 0
-72 -105 0
-73 -76 0
-74 -77 0
-75 -78 0
-73 -94 0
-74 -95 0
-75 -96 0
-73 -106 0
-74 -107 0
-75 -108 0
-73 -112 0
-74 -113 0
-75 -114 0
-76 -79 0
-77 -80 0
-78 -81 0
-76 -85 0
-77 -86 0
-78 -87 0
-76 -91 0
-77 -92 0
-78 -93 0
-76 -106 0
-77 -107 0
-78 -108 0
-76 -115 0
-77 -116 0
-78 -117 0
-76 -118 0
-77 -119 0
-78 -120 0
-79 -97 0
-80 -98 0
-81 -99 0
-79 -106 0
-80 -107 0
-81 -108 0
-79 -115 0
-80 -116 0
-81 -117 0
-82 -100 0
-83 -101 0
-84 -102 0
-85 -97 0
-86 -98 0
-87 -99 0
-85 -106 0
-86 -107 0
-87 -108 0
-85 -112 0
-86 -113 0
-87 -114 0
-88 -91 0
-89 -92 0
-90 -93 0
-88 -103 0
-89 -104 0
-90 -105 0
-91 -103 0
-92 -104 0
-93 -105 0
-91 -109 0
-92 -110 0
-93 -111 0
-91 -112 0
-92 -113 0
-93 -114 0
-91 -115 0
-92 -116 0
-93 -117 0
-94 -106 0
-95 -107 0
-96 -108 0
-97 -100 0
-98 -101 0
-99 -102 0
-100 -109 0
-101 -110 0
-102 -111 0
-100 -112 0
-101 -113 0
-102 -114 0
-100 -118 0
-101 -119 0
-102 -120 0
-103 -106 0
-104 -107 0
-105 -108 0
-103 -115 0
-104 -116 0
-105 -117 0
-103 -118 0
-104 -119 0
-105 -120 0
-106 -109 0
-107 -110 0
-108 -111 0
-106 -112 0
-107 -113 0
-108 -114 0
